NAME : a280
COMMENT : Tour length 3643
TYPE : TOUR
DIMENSION : 280
TOUR_SECTION
1
2
242
243
278
279
4
277
276
275
260
259
258
264
270
269
268
136
135
134
131
130
21
20
19
132
133
18
17
16
13
12
11
10
274
273
272
271
15
14
24
23
25
22
26
27
28
29
126
127
128
129
154
155
153
120
121
122
123
124
125
30
31
33
34
35
36
37
38
39
40
41
42
43
60
68
69
78
77
82
83
88
112
109
103
102
170
172
171
174
173
107
106
105
104
108
110
111
116
86
85
84
87
113
114
115
117
118
62
63
59
44
45
46
47
48
49
50
51
52
53
54
55
56
57
58
64
65
66
67
70
71
72
73
74
75
76
79
80
81
89
90
91
92
97
96
95
94
93
98
99
100
101
169
168
167
166
165
164
163
162
161
175
160
159
158
157
119
156
152
151
150
149
147
146
145
144
143
142
141
148
139
140
267
137
138
266
265
263
261
262
257
254
253
208
209
252
255
256
249
248
247
244
241
240
239
238
231
246
245
250
251
230
229
228
227
226
234
233
232
237
236
235
224
225
223
222
219
218
217
220
221
216
213
212
207
210
211
214
215
205
204
203
202
200
199
198
197
194
195
196
201
193
192
191
190
189
188
187
185
184
183
182
181
176
177
178
179
180
186
206
3
280
5
6
7
8
9
32
61
1
-1
EOF